Problem:    quiz
Rows:       121
Columns:    110 (110 integer, 110 binary)
Non-zeros:  490
Status:     INTEGER OPTIMAL
Objective:  zeta = 80405 (MINimum)

   No.   Row name        Activity     Lower bound   Upper bound
------ ------------    ------------- ------------- -------------
     1 zeta                    80405                             
     2 c1[1]                       1             1             = 
     3 c1[2]                       1             1             = 
     4 c1[3]                       1             1             = 
     5 c1[4]                       1             1             = 
     6 c1[5]                       1             1             = 
     7 c1[6]                       1             1             = 
     8 c1[7]                       1             1             = 
     9 c1[8]                       1             1             = 
    10 c1[9]                       1             1             = 
    11 c1[10]                      1             1             = 
    12 c2[1,1]                     0                          -0 
    13 c2[1,2]                     0                          -0 
    14 c2[1,3]                     0                          -0 
    15 c2[1,4]                     0                          -0 
    16 c2[1,5]                     0                          -0 
    17 c2[1,6]                     0                          -0 
    18 c2[1,7]                     0                          -0 
    19 c2[1,8]                    -1                          -0 
    20 c2[1,9]                     0                          -0 
    21 c2[1,10]                   -1                          -0 
    22 c2[2,1]                     0                          -0 
    23 c2[2,2]                     0                          -0 
    24 c2[2,3]                     0                          -0 
    25 c2[2,4]                     0                          -0 
    26 c2[2,5]                     0                          -0 
    27 c2[2,6]                     0                          -0 
    28 c2[2,7]                    -1                          -0 
    29 c2[2,8]                     0                          -0 
    30 c2[2,9]                     0                          -0 
    31 c2[2,10]                   -1                          -0 
    32 c2[3,1]                     0                          -0 
    33 c2[3,2]                     0                          -0 
    34 c2[3,3]                     0                          -0 
    35 c2[3,4]                     0                          -0 
    36 c2[3,5]                     0                          -0 
    37 c2[3,6]                     0                          -0 
    38 c2[3,7]                     0                          -0 
    39 c2[3,8]                    -1                          -0 
    40 c2[3,9]                     0                          -0 
    41 c2[3,10]                   -1                          -0 
    42 c2[4,1]                     0                          -0 
    43 c2[4,2]                     0                          -0 
    44 c2[4,3]                     0                          -0 
    45 c2[4,4]                     0                          -0 
    46 c2[4,5]                     0                          -0 
    47 c2[4,6]                     0                          -0 
    48 c2[4,7]                    -1                          -0 
    49 c2[4,8]                     0                          -0 
    50 c2[4,9]                     0                          -0 
    51 c2[4,10]                   -1                          -0 
    52 c2[5,1]                     0                          -0 
    53 c2[5,2]                     0                          -0 
    54 c2[5,3]                     0                          -0 
    55 c2[5,4]                     0                          -0 
    56 c2[5,5]                     0                          -0 
    57 c2[5,6]                     0                          -0 
    58 c2[5,7]                     0                          -0 
    59 c2[5,8]                    -1                          -0 
    60 c2[5,9]                     0                          -0 
    61 c2[5,10]                   -1                          -0 
    62 c2[6,1]                     0                          -0 
    63 c2[6,2]                     0                          -0 
    64 c2[6,3]                     0                          -0 
    65 c2[6,4]                     0                          -0 
    66 c2[6,5]                     0                          -0 
    67 c2[6,6]                     0                          -0 
    68 c2[6,7]                    -1                          -0 
    69 c2[6,8]                     0                          -0 
    70 c2[6,9]                     0                          -0 
    71 c2[6,10]                   -1                          -0 
    72 c2[7,1]                     0                          -0 
    73 c2[7,2]                     0                          -0 
    74 c2[7,3]                     0                          -0 
    75 c2[7,4]                     0                          -0 
    76 c2[7,5]                     0                          -0 
    77 c2[7,6]                     0                          -0 
    78 c2[7,7]                     0                          -0 
    79 c2[7,8]                    -1                          -0 
    80 c2[7,9]                     0                          -0 
    81 c2[7,10]                   -1                          -0 
    82 c2[8,1]                     0                          -0 
    83 c2[8,2]                     0                          -0 
    84 c2[8,3]                     0                          -0 
    85 c2[8,4]                     0                          -0 
    86 c2[8,5]                     0                          -0 
    87 c2[8,6]                     0                          -0 
    88 c2[8,7]                    -1                          -0 
    89 c2[8,8]                     0                          -0 
    90 c2[8,9]                     0                          -0 
    91 c2[8,10]                   -1                          -0 
    92 c2[9,1]                     0                          -0 
    93 c2[9,2]                     0                          -0 
    94 c2[9,3]                     0                          -0 
    95 c2[9,4]                     0                          -0 
    96 c2[9,5]                     0                          -0 
    97 c2[9,6]                     0                          -0 
    98 c2[9,7]                     0                          -0 
    99 c2[9,8]                    -1                          -0 
   100 c2[9,9]                     0                          -0 
   101 c2[9,10]                   -1                          -0 
   102 c2[10,1]                    0                          -0 
   103 c2[10,2]                    0                          -0 
   104 c2[10,3]                    0                          -0 
   105 c2[10,4]                    0                          -0 
   106 c2[10,5]                    0                          -0 
   107 c2[10,6]                    0                          -0 
   108 c2[10,7]                   -1                          -0 
   109 c2[10,8]                   -1                          -0 
   110 c2[10,9]                    0                          -0 
   111 c2[10,10]                   0                          -0 
   112 c3[1]                       3             3             = 
   113 c3[2]                       3             3             = 
   114 c3[3]                       3             3             = 
   115 c3[4]                       3             3             = 
   116 c3[5]                       3             3             = 
   117 c3[6]                       3             3             = 
   118 c3[7]                       3             3             = 
   119 c3[8]                       3             3             = 
   120 c3[9]                       3             3             = 
   121 c3[10]                      3             3             = 

   No. Column name       Activity     Lower bound   Upper bound
------ ------------    ------------- ------------- -------------
     1 Y[1,1]       *              0             0             1 
     2 Y[1,2]       *              0             0             1 
     3 Y[1,3]       *              0             0             1 
     4 Y[1,4]       *              0             0             1 
     5 Y[1,5]       *              0             0             1 
     6 Y[1,6]       *              0             0             1 
     7 Y[1,7]       *              1             0             1 
     8 Y[1,8]       *              0             0             1 
     9 Y[1,9]       *              0             0             1 
    10 Y[1,10]      *              0             0             1 
    11 Y[2,1]       *              0             0             1 
    12 Y[2,2]       *              0             0             1 
    13 Y[2,3]       *              0             0             1 
    14 Y[2,4]       *              0             0             1 
    15 Y[2,5]       *              0             0             1 
    16 Y[2,6]       *              0             0             1 
    17 Y[2,7]       *              0             0             1 
    18 Y[2,8]       *              1             0             1 
    19 Y[2,9]       *              0             0             1 
    20 Y[2,10]      *              0             0             1 
    21 Y[3,1]       *              0             0             1 
    22 Y[3,2]       *              0             0             1 
    23 Y[3,3]       *              0             0             1 
    24 Y[3,4]       *              0             0             1 
    25 Y[3,5]       *              0             0             1 
    26 Y[3,6]       *              0             0             1 
    27 Y[3,7]       *              1             0             1 
    28 Y[3,8]       *              0             0             1 
    29 Y[3,9]       *              0             0             1 
    30 Y[3,10]      *              0             0             1 
    31 Y[4,1]       *              0             0             1 
    32 Y[4,2]       *              0             0             1 
    33 Y[4,3]       *              0             0             1 
    34 Y[4,4]       *              0             0             1 
    35 Y[4,5]       *              0             0             1 
    36 Y[4,6]       *              0             0             1 
    37 Y[4,7]       *              0             0             1 
    38 Y[4,8]       *              1             0             1 
    39 Y[4,9]       *              0             0             1 
    40 Y[4,10]      *              0             0             1 
    41 Y[5,1]       *              0             0             1 
    42 Y[5,2]       *              0             0             1 
    43 Y[5,3]       *              0             0             1 
    44 Y[5,4]       *              0             0             1 
    45 Y[5,5]       *              0             0             1 
    46 Y[5,6]       *              0             0             1 
    47 Y[5,7]       *              1             0             1 
    48 Y[5,8]       *              0             0             1 
    49 Y[5,9]       *              0             0             1 
    50 Y[5,10]      *              0             0             1 
    51 Y[6,1]       *              0             0             1 
    52 Y[6,2]       *              0             0             1 
    53 Y[6,3]       *              0             0             1 
    54 Y[6,4]       *              0             0             1 
    55 Y[6,5]       *              0             0             1 
    56 Y[6,6]       *              0             0             1 
    57 Y[6,7]       *              0             0             1 
    58 Y[6,8]       *              1             0             1 
    59 Y[6,9]       *              0             0             1 
    60 Y[6,10]      *              0             0             1 
    61 Y[7,1]       *              0             0             1 
    62 Y[7,2]       *              0             0             1 
    63 Y[7,3]       *              0             0             1 
    64 Y[7,4]       *              0             0             1 
    65 Y[7,5]       *              0             0             1 
    66 Y[7,6]       *              0             0             1 
    67 Y[7,7]       *              1             0             1 
    68 Y[7,8]       *              0             0             1 
    69 Y[7,9]       *              0             0             1 
    70 Y[7,10]      *              0             0             1 
    71 Y[8,1]       *              0             0             1 
    72 Y[8,2]       *              0             0             1 
    73 Y[8,3]       *              0             0             1 
    74 Y[8,4]       *              0             0             1 
    75 Y[8,5]       *              0             0             1 
    76 Y[8,6]       *              0             0             1 
    77 Y[8,7]       *              0             0             1 
    78 Y[8,8]       *              1             0             1 
    79 Y[8,9]       *              0             0             1 
    80 Y[8,10]      *              0             0             1 
    81 Y[9,1]       *              0             0             1 
    82 Y[9,2]       *              0             0             1 
    83 Y[9,3]       *              0             0             1 
    84 Y[9,4]       *              0             0             1 
    85 Y[9,5]       *              0             0             1 
    86 Y[9,6]       *              0             0             1 
    87 Y[9,7]       *              1             0             1 
    88 Y[9,8]       *              0             0             1 
    89 Y[9,9]       *              0             0             1 
    90 Y[9,10]      *              0             0             1 
    91 Y[10,1]      *              0             0             1 
    92 Y[10,2]      *              0             0             1 
    93 Y[10,3]      *              0             0             1 
    94 Y[10,4]      *              0             0             1 
    95 Y[10,5]      *              0             0             1 
    96 Y[10,6]      *              0             0             1 
    97 Y[10,7]      *              0             0             1 
    98 Y[10,8]      *              0             0             1 
    99 Y[10,9]      *              0             0             1 
   100 Y[10,10]     *              1             0             1 
   101 X[1]         *              0             0             1 
   102 X[2]         *              0             0             1 
   103 X[3]         *              0             0             1 
   104 X[4]         *              0             0             1 
   105 X[5]         *              0             0             1 
   106 X[6]         *              0             0             1 
   107 X[7]         *              1             0             1 
   108 X[8]         *              1             0             1 
   109 X[9]         *              0             0             1 
   110 X[10]        *              1             0             1 

Integer feasibility conditions:

KKT.PE: max.abs.err = 0.00e+00 on row 0
        max.rel.err = 0.00e+00 on row 0
        High quality

KKT.PB: max.abs.err = 0.00e+00 on row 0
        max.rel.err = 0.00e+00 on row 0
        High quality

End of output
